(set-logic ALL)


; Normalized Portuguese Bank Dataset (numeric features only)
; Min-Max scaled to [-1, 1]
; Numeric column: duration (index 11)

(define-fun m () Int 100)
(define-fun n () Int 1)

(declare-const D (Array Int (Array Int Real)))

(define-fun row1 ((x0 Real)) (Array Int Real)
  (store ((as const (Array Int Real)) 0.0) 0 x0)
)

(assert (= (select D 0) (row1 -0.718980)))
(assert (= (select D 1) (row1 -0.843626)))
(assert (= (select D 2) (row1 -0.928612)))
(assert (= (select D 3) (row1 -0.910482)))
(assert (= (select D 4) (row1 -0.790368)))
(assert (= (select D 5) (row1 -0.857224)))
(assert (= (select D 6) (row1 -0.768839)))
(assert (= (select D 7) (row1 -0.584136)))
(assert (= (select D 8) (row1 -0.958074)))
(assert (= (select D 9) (row1 -0.952408)))
(assert (= (select D 10) (row1 -0.763173)))
(assert (= (select D 11) (row1 -0.859490)))
(assert (= (select D 12) (row1 -0.428895)))
(assert (= (select D 13) (row1 -0.934278)))
(assert (= (select D 14) (row1 -0.817564)))
(assert (= (select D 15) (row1 -0.614731)))
(assert (= (select D 16) (row1 -0.903683)))
(assert (= (select D 17) (row1 -0.971671)))
(assert (= (select D 18) (row1 -0.766572)))
(assert (= (select D 19) (row1 -0.953541)))
(assert (= (select D 20) (row1 -0.717847)))
(assert (= (select D 21) (row1 -0.828895)))
(assert (= (select D 22) (row1 -0.833428)))
(assert (= (select D 23) (row1 -0.627195)))
(assert (= (select D 24) (row1 -0.809632)))
(assert (= (select D 25) (row1 -0.819830)))
(assert (= (select D 26) (row1 -0.679320)))
(assert (= (select D 27) (row1 -0.870822)))
(assert (= (select D 28) (row1 -0.725779)))
(assert (= (select D 29) (row1 -0.620397)))
(assert (= (select D 30) (row1 -0.759773)))
(assert (= (select D 31) (row1 -0.754108)))
(assert (= (select D 32) (row1 -0.779037)))
(assert (= (select D 33) (row1 -0.758640)))
(assert (= (select D 34) (row1 -0.633994)))
(assert (= (select D 35) (row1 -0.740510)))
(assert (= (select D 36) (row1 -0.601133)))
(assert (= (select D 37) (row1 0.873088)))
(assert (= (select D 38) (row1 -0.360907)))
(assert (= (select D 39) (row1 -0.859490)))
(assert (= (select D 40) (row1 -0.833428)))
(assert (= (select D 41) (row1 -0.810765)))
(assert (= (select D 42) (row1 -0.989802)))
(assert (= (select D 43) (row1 0.675921)))
(assert (= (select D 44) (row1 -0.316714)))
(assert (= (select D 45) (row1 -0.740510)))
(assert (= (select D 46) (row1 -0.612465)))
(assert (= (select D 47) (row1 -0.759773)))
(assert (= (select D 48) (row1 -0.833428)))
(assert (= (select D 49) (row1 -0.603399)))
(assert (= (select D 50) (row1 -0.713314)))
(assert (= (select D 51) (row1 -0.728045)))
(assert (= (select D 52) (row1 -0.811898)))
(assert (= (select D 53) (row1 -0.122946)))
(assert (= (select D 54) (row1 -0.850425)))
(assert (= (select D 55) (row1 -0.817564)))
(assert (= (select D 56) (row1 -0.896884)))
(assert (= (select D 57) (row1 -1.000000)))
(assert (= (select D 58) (row1 -0.805099)))
(assert (= (select D 59) (row1 1.000000)))
(assert (= (select D 60) (row1 -0.858357)))
(assert (= (select D 61) (row1 -0.094618)))
(assert (= (select D 62) (row1 -0.828895)))
(assert (= (select D 63) (row1 -0.571671)))
(assert (= (select D 64) (row1 -0.610198)))
(assert (= (select D 65) (row1 -0.911615)))
(assert (= (select D 66) (row1 -0.416431)))
(assert (= (select D 67) (row1 -0.705382)))
(assert (= (select D 68) (row1 -0.835694)))
(assert (= (select D 69) (row1 -0.814164)))
(assert (= (select D 70) (row1 -0.722380)))
(assert (= (select D 71) (row1 -0.819830)))
(assert (= (select D 72) (row1 -0.840227)))
(assert (= (select D 73) (row1 -0.684986)))
(assert (= (select D 74) (row1 -0.809632)))
(assert (= (select D 75) (row1 -0.815297)))
(assert (= (select D 76) (row1 -0.775637)))
(assert (= (select D 77) (row1 -0.619263)))
(assert (= (select D 78) (row1 -0.706516)))
(assert (= (select D 79) (row1 -0.779037)))
(assert (= (select D 80) (row1 -0.796034)))
(assert (= (select D 81) (row1 -0.774504)))
(assert (= (select D 82) (row1 -0.992068)))
(assert (= (select D 83) (row1 0.166006)))
(assert (= (select D 84) (row1 -0.735977)))
(assert (= (select D 85) (row1 -0.415297)))
(assert (= (select D 86) (row1 0.647592)))
(assert (= (select D 87) (row1 0.559207)))
(assert (= (select D 88) (row1 -0.801700)))
(assert (= (select D 89) (row1 -0.810765)))
(assert (= (select D 90) (row1 -0.960340)))
(assert (= (select D 91) (row1 -0.773371)))
(assert (= (select D 92) (row1 -0.354108)))
(assert (= (select D 93) (row1 -0.764306)))
(assert (= (select D 94) (row1 -0.818697)))
(assert (= (select D 95) (row1 -0.532011)))
(assert (= (select D 96) (row1 -0.689518)))
(assert (= (select D 97) (row1 -0.900283)))
(assert (= (select D 98) (row1 -0.784703)))
(assert (= (select D 99) (row1 -0.791501)))

; =====================
; distance-based well-distributedness (1D, recursive distance)
; =====================

; d: Real (distance threshold)
(define-fun d () Real 2.0)

; 1D squared diff sum (keeps the recursive structure)
(define-fun-rec squared-diff-sum-1d ((p Real) (x Real) (size Int)) Real
  (ite (< size 0)
       0.0
       (+ (^ (- p x) 2.0)
          (squared-diff-sum-1d p x (- size 1)))
  )
)

; 1D distance = sqrt(squared sum)
(define-fun distance-1d ((p Real) (x Real) (size Int)) Real
  (^ (squared-diff-sum-1d p x size) 0.5)
)

(assert
  (not
    (exists ((p Real))
      (and
        (>= p -1.0)
        (<= p  1.0)
        (forall ((i Int))
          (=>
            (and (>= i 0) (< i m))
            (> (distance-1d p (select (select D i) 0) (- n 1)) d)
          )
        )
      )
    )
  )
)

(check-sat)

